30 5
43 49 29 34 42 22 26 16 50 91 32 14 46 92 33 48 79 76 36 59 75 40 40 60 44 50 23 55 80 85
74 66 63 25 74 68 42 23 65 36 71 37 89 57 53 89 73 91 79 77 16 91 88 67 99 37 29 83 44 74
15 62 42 10 99 73 61 84 80 78 13 43 61 53 39 97 98 62 51 95 75 28 13 66 63 42 95 43 99 79
71 20 11 74 47 70 95 82 13 54 34 65 55 76 66 45 28 69 36 81 73 16 58 12 90 68 53 47 53 27
17 56 63 27 32 91 14 83 68 68 49 53 33 62 26 46 88 97 74 57 65 83 74 85 76 86 69 87 34 59
